NAME : portcgen-10-90
COMMENT : portcgen N=10, seed=90
TYPE : TSP
DIMENSION : 10
EDGE_WEIGHT_TYPE : EUC_2D
NODE_COORD_SECTION
1 37 113
2 63 85
3 52 98
4 27 106
5 72 31
6 27 104
7 50 94
8 31 111
9 68 50
10 49 117
